c nIsolatedPIs 0
c maxPI 8
p cnf 15 22
c gate 9 5 -6 0
5 -9 0
-6 -9 0
-5 6 9 0
c gate 10 7 8 0
7 -10 0
8 -10 0
-7 -8 10 0
c gate 11 9 10 0
9 -11 0
10 -11 0
-9 -10 11 0
c gate 12 1 -2 0
1 -12 0
-2 -12 0
-1 2 12 0
c gate 13 3 4 0
3 -13 0
4 -13 0
-3 -4 13 0
c gate 14 12 13 0
12 -14 0
13 -14 0
-12 -13 14 0
c gate 15 11 14 0
11 -15 0
14 -15 0
-11 -14 15 0
c PO
15 0
